data/CVRPLIB/Vrp-Set-XML100/instances/XML100_2316_26.vrp
NAME : XML100_2316_26
COMMENT : Generated by Queiroga, Sadykov, Uchoa, and Vidal (2021)
TYPE : CVRP
DIMENSION : 101
EDGE_WEIGHT_TYPE : EUC_2D
CAPACITY : 46
NODE_COORD_SECTION
1    500  500 
2    825  906 
3    374  986 
4    319  453 
5    157  310 
6    640  325 
7    51   74  
8    425  697 
9    409  458 
10   881  674 
11   717  535 
12   766  148 
13   971  892 
14   288  235 
15   44   510 
16   714  439 
17   703  842 
18   938  904 
19   490  181 
20   19   13  
21   616  838 
22   103  482 
23   482  883 
24   971  864 
25   119  608 
26   337  434 
27   254  384 
28   977  93  
29   764  252 
30   948  494 
31   235  326 
32   985  906 
33   302  476 
34   836  892 
35   781  173 
36   173  207 
37   690  507 
38   71   388 
39   329  484 
40   540  960 
41   314  459 
42   937  184 
43   48   913 
44   834  70  
45   166  577 
46   130  877 
47   445  600 
48   957  882 
49   454  197 
50   529  146 
51   919  28  
52   271  417 
53   991  450 
54   517  923 
55   248  446 
56   957  892 
57   508  445 
58   545  435 
59   374  811 
60   657  911 
61   277  122 
62   903  15  
63   725  544 
64   113  839 
65   54   410 
66   968  74  
67   716  19  
68   281  724 
69   275  427 
70   295  399 
71   900  901 
72   80   386 
73   377  681 
74   977  787 
75   246  470 
76   146  238 
77   697  774 
78   930  15  
79   310  513 
80   497  507 
81   757  953 
82   403  753 
83   976  155 
84   112  140 
85   762  437 
86   744  908 
87   480  984 
88   937  585 
89   803  415 
90   995  29  
91   980  100 
92   702  455 
93   969  954 
94   643  815 
95   234  395 
96   997  869 
97   954  896 
98   987  691 
99   439  544 
100  193  394 
101  665  424 
DEMAND_SECTION
1    0   
2    1   
3    1   
4    1   
5    1   
6    1   
7    1   
8    1   
9    1   
10   1   
11   1   
12   1   
13   1   
14   1   
15   1   
16   1   
17   1   
18   1   
19   1   
20   1   
21   1   
22   1   
23   1   
24   1   
25   1   
26   1   
27   1   
28   1   
29   1   
30   1   
31   1   
32   1   
33   1   
34   1   
35   1   
36   1   
37   1   
38   1   
39   1   
40   1   
41   1   
42   1   
43   1   
44   1   
45   1   
46   1   
47   1   
48   1   
49   1   
50   1   
51   1   
52   1   
53   1   
54   1   
55   1   
56   1   
57   1   
58   1   
59   1   
60   1   
61   1   
62   1   
63   1   
64   1   
65   1   
66   1   
67   1   
68   1   
69   1   
70   1   
71   1   
72   1   
73   1   
74   1   
75   1   
76   1   
77   1   
78   1   
79   1   
80   1   
81   1   
82   1   
83   1   
84   1   
85   1   
86   1   
87   1   
88   1   
89   1   
90   1   
91   1   
92   1   
93   1   
94   1   
95   1   
96   1   
97   1   
98   1   
99   1   
100  1   
101  1   
DEPOT_SECTION
1
-1
EOF
