data/CVRPLIB/Vrp-Set-XML100/solutions/XML100_2316_26.sol
Route #1: 62 10 36 91 15 84 88 52 29 87 9 97 73 95 23 47 55 96 12 31 92 17 70 33 1 80 85 59 16 76 93 20 22 53 39 86 2 45 42 63 67 58 81 7 72 46
Route #2: 25 69 51 68 54 74 44 24 14 21 64 37 71 99 94 26 30 4 75 35 83 6 19 60 13 48 18 49 66 43 61 50 77 89 65 27 90 82 41 11 34 28 5 100 57 56
Route #3: 79 98 78 38 32 40 3 8
Cost 7718
